SDVRP instances/custom_instances/p03_17_split0.vrp
NAME:p03_17_split
BEST_KNOWN: 0
COMMENT: 0
DIMENSION: 494
CAPACITY: 200
EDGE_WEIGHT_FORMAT: FUNCTION
EDGE_WEIGHT_TYPE: EXACT_2D
NODE_COORD_SECTION
1 0.00000 0.00000
2 47 34
3 47 34
4 47 34
5 -42 1
6 -42 1
7 -42 1
8 -42 1
9 30 -13
10 30 -13
11 30 -13
12 30 -13
13 30 -13
14 50 6
15 50 6
16 50 6
17 50 6
18 50 6
19 50 6
20 15 -16
21 15 -16
22 15 -16
23 15 -16
24 37 -4
25 37 -4
26 37 -4
27 37 -4
28 37 -4
29 37 -4
30 -46 46
31 -46 46
32 -46 46
33 -46 46
34 -46 46
35 -46 46
36 8 18
37 8 18
38 8 18
39 8 18
40 10 -36
41 10 -36
42 10 -36
43 10 -36
44 10 -36
45 10 -36
46 10 -36
47 16 -48
48 16 -48
49 16 -48
50 16 -48
51 16 -48
52 16 -48
53 16 -48
54 44 -50
55 44 -50
56 44 -50
57 14 37
58 14 37
59 14 37
60 14 37
61 -20 -15
62 -20 -15
63 -20 -15
64 -20 -15
65 -20 -15
66 -20 -15
67 -6 -9
68 -6 -9
69 -6 -9
70 -6 -9
71 -6 -9
72 -6 -9
73 -6 -9
74 -26 -34
75 -26 -34
76 -26 -34
77 -26 -34
78 -26 -34
79 -26 -34
80 -26 -34
81 -26 38
82 -26 38
83 -26 38
84 -30 -12
85 -30 -12
86 -30 -12
87 -30 -12
88 49 4
89 49 4
90 49 4
91 49 4
92 49 4
93 13 19
94 13 19
95 13 19
96 42 38
97 42 38
98 42 38
99 23 14
100 23 14
101 23 14
102 23 14
103 23 14
104 23 14
105 23 14
106 22 25
107 22 25
108 22 25
109 22 25
110 22 25
111 -41 33
112 -41 33
113 -41 33
114 3 -43
115 3 -43
116 3 -43
117 3 -43
118 -17 -50
119 -17 -50
120 -17 -50
121 5 42
122 5 42
123 5 42
124 5 42
125 5 42
126 5 42
127 5 42
128 5 42
129 -26 -32
130 -26 -32
131 -26 -32
132 6 15
133 6 15
134 6 15
135 6 15
136 6 15
137 6 15
138 -26 8
139 -26 8
140 -26 8
141 -26 8
142 -26 8
143 -26 8
144 -26 8
145 -38 34
146 -38 34
147 -38 34
148 -38 34
149 -38 34
150 17 -12
151 17 -12
152 17 -12
153 -14 12
154 -14 12
155 -14 12
156 -14 12
157 -14 12
158 -14 12
159 -14 12
160 47 -13
161 47 -13
162 47 -13
163 47 -13
164 47 -13
165 47 -13
166 47 -13
167 -30 46
168 -30 46
169 -30 46
170 -30 46
171 -30 46
172 -30 46
173 -14 12
174 -14 12
175 -14 12
176 -14 12
177 -14 12
178 5 -21
179 5 -21
180 5 -21
181 5 -21
182 -2 49
183 -2 49
184 -2 49
185 -2 49
186 -22 42
187 -22 42
188 -22 42
189 -22 42
190 -22 42
191 -22 42
192 -22 42
193 -5 39
194 -5 39
195 -5 39
196 12 31
197 12 31
198 12 31
199 12 31
200 28 40
201 28 40
202 28 40
203 28 40
204 7 22
205 7 22
206 7 22
207 7 22
208 7 22
209 20 41
210 20 41
211 20 41
212 20 41
213 20 41
214 4 4
215 4 4
216 4 4
217 4 4
218 4 4
219 4 4
220 4 4
221 -44 -12
222 -44 -12
223 -44 -12
224 -44 -12
225 -44 -12
226 -44 -12
227 -46 -26
228 -46 -26
229 -46 -26
230 -46 -26
231 -46 -26
232 -46 -26
233 -46 -26
234 -3 21
235 -3 21
236 -3 21
237 -3 21
238 -3 21
239 -50 -12
240 -50 -12
241 -50 -12
242 -50 -12
243 -22 -8
244 -22 -8
245 -22 -8
246 -22 -8
247 -22 -8
248 -8 -18
249 -8 -18
250 -8 -18
251 -8 -18
252 -15 -6
253 -15 -6
254 -15 -6
255 -15 -6
256 13 -22
257 13 -22
258 13 -22
259 13 -22
260 13 -22
261 13 -22
262 20 27
263 20 27
264 20 27
265 20 27
266 20 27
267 20 27
268 20 27
269 -38 47
270 -38 47
271 -38 47
272 14 -43
273 14 -43
274 -15 39
275 -15 39
276 -24 29
277 -24 29
278 -24 29
279 -24 29
280 -39 -7
281 -39 -7
282 -39 -7
283 -39 -7
284 -39 -7
285 9 45
286 9 45
287 9 45
288 9 45
289 9 45
290 10 34
291 10 34
292 10 34
293 -47 -14
294 -47 -14
295 -47 -14
296 -47 -14
297 -47 -14
298 -21 -50
299 -21 -50
300 -21 -50
301 -36 48
302 -36 48
303 -36 48
304 -8 -28
305 -8 -28
306 -8 -28
307 -8 -28
308 -8 -28
309 -8 -28
310 -20 43
311 -20 43
312 -20 43
313 -20 43
314 -20 43
315 -16 -25
316 -16 -25
317 -16 -25
318 -16 -25
319 -16 -25
320 -16 -25
321 -1 4
322 -1 4
323 -1 4
324 -1 4
325 -1 4
326 21 12
327 21 12
328 21 12
329 21 12
330 21 12
331 2 -31
332 2 -31
333 2 -31
334 2 -31
335 2 -31
336 2 -31
337 -50 49
338 -50 49
339 -50 49
340 -50 49
341 -50 49
342 39 32
343 39 32
344 39 32
345 39 32
346 39 32
347 39 32
348 44 41
349 44 41
350 44 41
351 44 41
352 44 41
353 8 -30
354 8 -30
355 8 -30
356 8 -30
357 8 -30
358 8 -30
359 21 25
360 21 25
361 21 25
362 21 25
363 21 25
364 21 25
365 31 33
366 31 33
367 31 33
368 31 33
369 -49 15
370 -49 15
371 -49 15
372 -49 15
373 -47 -22
374 -47 -22
375 -47 -22
376 -47 -22
377 -47 -22
378 40 32
379 40 32
380 40 32
381 40 32
382 -10 -34
383 -10 -34
384 -10 -34
385 -10 -34
386 -10 -34
387 -10 -34
388 0 -22
389 0 -22
390 0 -22
391 0 -22
392 0 -22
393 -44 -42
394 -44 -42
395 -44 -42
396 -44 -42
397 -44 -42
398 42 50
399 42 50
400 42 50
401 35 38
402 35 38
403 35 38
404 35 38
405 35 38
406 35 38
407 35 38
408 4 -12
409 4 -12
410 4 -12
411 4 -12
412 4 -12
413 4 -12
414 -31 -47
415 -31 -47
416 -31 -47
417 -31 -47
418 -31 -47
419 -31 -47
420 -31 -47
421 29 -8
422 29 -8
423 29 -8
424 29 -8
425 -41 42
426 -41 42
427 -41 42
428 3 -17
429 3 -17
430 3 -17
431 -16 3
432 -16 3
433 -16 3
434 49 26
435 49 26
436 49 26
437 49 26
438 49 26
439 49 26
440 49 26
441 2 -25
442 2 -25
443 2 -25
444 2 -25
445 2 -25
446 2 -25
447 -17 17
448 -17 17
449 -17 17
450 -17 17
451 -17 17
452 -17 17
453 -17 17
454 38 -9
455 38 -9
456 38 -9
457 38 -9
458 38 -9
459 38 -9
460 -18 -14
461 -18 -14
462 -18 -14
463 -18 -14
464 -18 -14
465 -18 -14
466 -18 -14
467 1 -14
468 1 -14
469 1 -14
470 1 -14
471 1 -14
472 1 -14
473 -26 8
474 -26 8
475 -26 8
476 -46 -30
477 -46 -30
478 -46 -30
479 -46 -30
480 -46 -30
481 -28 18
482 -28 18
483 -28 18
484 -28 18
485 -28 18
486 -28 18
487 -27 -35
488 -27 -35
489 -27 -35
490 -27 -35
491 34 50
492 34 50
493 34 50
494 34 50
DEMAND_SECTION
1 0
2 40
3 40
4 20
5 40
6 20
7 10
8 1
9 40
10 20
11 2
12 2
13 1
14 40
15 20
16 10
17 2
18 2
19 2
20 20
21 2
22 2
23 2
24 40
25 20
26 2
27 2
28 2
29 1
30 20
31 10
32 2
33 2
34 2
35 2
36 20
37 2
38 2
39 2
40 40
41 40
42 10
43 2
44 2
45 2
46 1
47 40
48 20
49 10
50 2
51 2
52 2
53 1
54 40
55 40
56 1
57 40
58 10
59 2
60 2
61 40
62 40
63 2
64 2
65 2
66 2
67 40
68 20
69 10
70 2
71 2
72 2
73 2
74 40
75 20
76 10
77 2
78 2
79 2
80 1
81 40
82 10
83 1
84 40
85 40
86 10
87 2
88 20
89 10
90 2
91 2
92 2
93 40
94 2
95 1
96 40
97 20
98 1
99 40
100 40
101 2
102 2
103 2
104 2
105 1
106 40
107 10
108 2
109 2
110 1
111 40
112 10
113 2
114 20
115 2
116 2
117 1
118 40
119 2
120 1
121 40
122 20
123 10
124 2
125 2
126 2
127 2
128 1
129 40
130 20
131 2
132 40
133 40
134 2
135 2
136 2
137 1
138 40
139 40
140 10
141 2
142 2
143 2
144 2
145 40
146 40
147 10
148 2
149 2
150 40
151 2
152 2
153 40
154 10
155 2
156 2
157 2
158 2
159 1
160 40
161 10
162 2
163 2
164 2
165 2
166 1
167 20
168 2
169 2
170 2
171 2
172 1
173 40
174 40
175 10
176 2
177 2
178 40
179 10
180 2
181 2
182 40
183 10
184 2
185 2
186 40
187 40
188 2
189 2
190 2
191 2
192 1
193 40
194 40
195 10
196 40
197 2
198 2
199 1
200 20
201 2
202 2
203 1
204 20
205 10
206 2
207 2
208 1
209 40
210 40
211 2
212 2
213 1
214 40
215 40
216 2
217 2
218 2
219 2
220 1
221 40
222 20
223 10
224 2
225 2
226 1
227 40
228 40
229 2
230 2
231 2
232 2
233 1
234 40
235 20
236 10
237 2
238 2
239 40
240 40
241 10
242 2
243 20
244 2
245 2
246 2
247 1
248 40
249 40
250 2
251 1
252 20
253 2
254 2
255 2
256 40
257 40
258 10
259 2
260 2
261 1
262 40
263 20
264 10
265 2
266 2
267 2
268 1
269 40
270 40
271 1
272 40
273 1
274 40
275 10
276 40
277 40
278 2
279 2
280 40
281 2
282 2
283 2
284 2
285 40
286 2
287 2
288 2
289 2
290 40
291 40
292 20
293 40
294 2
295 2
296 2
297 2
298 40
299 40
300 2
301 40
302 20
303 10
304 40
305 20
306 10
307 2
308 2
309 1
310 40
311 2
312 2
313 2
314 1
315 40
316 10
317 2
318 2
319 2
320 1
321 40
322 2
323 2
324 2
325 1
326 40
327 2
328 2
329 2
330 1
331 40
332 10
333 2
334 2
335 2
336 1
337 40
338 40
339 2
340 2
341 2
342 40
343 40
344 2
345 2
346 2
347 1
348 20
349 2
350 2
351 2
352 1
353 40
354 40
355 10
356 2
357 2
358 1
359 40
360 40
361 10
362 2
363 2
364 1
365 40
366 40
367 2
368 2
369 40
370 10
371 2
372 1
373 20
374 2
375 2
376 2
377 1
378 40
379 20
380 2
381 1
382 40
383 40
384 2
385 2
386 2
387 1
388 40
389 20
390 2
391 2
392 2
393 40
394 40
395 2
396 2
397 1
398 40
399 20
400 2
401 40
402 40
403 10
404 2
405 2
406 2
407 2
408 40
409 40
410 2
411 2
412 2
413 1
414 40
415 10
416 2
417 2
418 2
419 2
420 1
421 40
422 40
423 2
424 1
425 40
426 2
427 1
428 40
429 40
430 2
431 40
432 10
433 1
434 40
435 10
436 2
437 2
438 2
439 2
440 1
441 40
442 40
443 10
444 2
445 2
446 2
447 40
448 40
449 10
450 2
451 2
452 2
453 1
454 40
455 2
456 2
457 2
458 2
459 1
460 40
461 20
462 10
463 2
464 2
465 2
466 2
467 40
468 20
469 2
470 2
471 2
472 1
473 40
474 40
475 10
476 40
477 20
478 2
479 2
480 1
481 40
482 40
483 10
484 2
485 2
486 2
487 40
488 20
489 10
490 2
491 20
492 2
493 2
494 1
DEPOT_SECTION
1
-1
EOF