SDVRP instances/custom_instances/p03_17_split0.sol
493 -4 5 7 6 220 221 224 223 85 83 86 243 245 246 254 253 252 -19 21 22 20 151 150 149 10 9 12 11 8 421 422 423 -24 26 88 91 87 89 90 15 14 13 18 17 16 439 438 433 434 437 436 435 -28 25 27 23 165 164 162 161 163 159 160 455 457 456 454 458 453 420 -36 35 195 198 196 291 289 290 203 206 205 204 207 -38 37 212 211 210 209 208 200 202 199 201 364 365 367 366 -39 42 40 43 41 44 116 114 113 115 335 331 333 332 334 330 390 388 -45 271 272 48 46 51 49 47 50 52 53 54 55 -70 72 69 68 67 71 66 248 247 249 250 -78 77 79 76 74 73 75 487 486 130 129 128 -81 82 80 191 185 188 189 187 190 186 310 309 311 312 313 -84 395 394 392 393 396 414 418 416 415 417 413 419 489 488 -94 92 93 262 264 263 261 265 362 358 363 359 -95 97 96 347 348 349 350 351 1 2 3 379 380 345 346 -109 105 107 106 108 342 344 341 343 378 377 -121 125 120 126 124 123 127 122 287 288 284 286 285 56 57 59 58 197 -131 233 235 236 237 234 446 447 -135 134 136 133 132 102 98 100 104 99 103 101 328 329 326 325 327 -139 142 141 473 138 137 474 143 140 472 431 -145 148 147 146 144 111 112 110 371 368 369 370 -157 154 153 176 158 156 175 155 174 173 172 152 432 430 -168 169 170 166 171 167 300 301 302 268 269 270 -193 194 192 181 184 183 182 273 274 -217 218 214 219 216 215 213 320 321 323 322 324 -222 225 294 293 292 296 295 239 240 241 238 282 281 280 283 279 -251 242 244 64 60 61 460 464 459 465 461 463 -256 260 258 257 255 259 356 357 353 352 355 354 -266 267 493 492 491 490 397 399 398 403 405 406 402 400 401 404 360 361 -304 303 386 384 381 382 385 383 389 387 391 -305 307 308 306 119 118 117 297 299 298 314 317 315 316 318 319 -337 340 339 336 338 34 31 33 30 29 32 424 426 425 -375 374 373 376 372 227 232 229 230 231 228 226 478 475 479 477 476 63 62 65 462 -409 410 411 412 408 407 428 471 467 466 468 470 469 -427 429 180 179 178 177 440 442 441 444 445 443 -449 452 451 450 448 278 276 277 275 481 480 485 482 483 484 0 





OBJ=
3148.438
BEST_KNOWN=
0.000